p cnf 59 209
-4 2 0
-4 -3 0
-2 3 4 0
-5 -1 0
-5 -4 0
1 4 5 0
7 6 0
7 -2 0
-6 2 -7 0
-9 2 0
-9 8 0
-2 -8 9 0
-10 -3 0
-10 9 0
3 -9 10 0
-11 7 0
-11 -10 0
-7 10 11 0
11 12 -13 0
-11 -12 -13 0
11 -12 13 0
-11 12 13 0
-15 -7 0
-15 -1 0
7 1 15 0
-16 -14 0
-16 -15 0
14 15 16 0
-17 -9 0
-17 12 0
9 -12 17 0
18 -14 0
18 -11 0
14 11 -18 0
-21 19 0
-21 -20 0
-19 20 21 0
18 -21 -22 0
-18 21 -22 0
18 21 22 0
-18 -21 22 0
23 -22 0
23 -1 0
22 1 -23 0
-17 23 -24 0
17 -23 -24 0
-17 -23 24 0
17 23 24 0
25 -16 0
25 -24 0
16 24 -25 0
-26 13 0
-26 -25 0
-13 25 26 0
-27 -21 0
-27 10 0
21 -10 27 0
-28 -18 0
-28 -27 0
18 27 28 0
-29 19 0
-29 -28 0
-19 28 29 0
3 9 -30 0
-3 -9 -30 0
3 -9 30 0
-3 9 30 0
-29 30 -31 0
29 -30 -31 0
-29 -30 31 0
29 30 31 0
32 6 0
32 -18 0
-6 18 -32 0
33 -31 0
33 -32 0
31 32 -33 0
-34 2 0
-34 -11 0
-2 11 34 0
3 -34 -35 0
-3 34 -35 0
3 34 35 0
-3 -34 35 0
-36 11 0
-36 -10 0
-11 10 36 0
-37 -36 0
-37 -6 0
36 6 37 0
35 -37 -38 0
-35 37 -38 0
35 37 38 0
-35 -37 38 0
-39 -33 0
-39 38 0
33 -38 39 0
-40 26 0
-40 39 0
-26 -39 40 0
-41 -36 0
-41 6 0
36 -6 41 0
42 41 0
42 -18 0
-41 18 -42 0
-43 -7 -44 0
43 7 -44 0
-43 7 44 0
43 -7 44 0
-45 42 0
-45 44 0
-42 -44 45 0
46 40 0
46 -45 0
-40 45 -46 0
-1 -8 -47 0
1 8 -47 0
-1 8 47 0
1 -8 47 0
-48 -11 0
-48 47 0
11 -47 48 0
-49 4 0
-49 -34 0
-4 34 49 0
-14 -49 -50 0
14 49 -50 0
-14 49 50 0
14 -49 50 0
48 -50 -51 0
-48 50 -51 0
48 50 51 0
-48 -50 51 0
52 17 0
52 14 0
-17 -14 -52 0
-51 52 -53 0
51 -52 -53 0
-51 -52 53 0
51 52 53 0
54 46 0
54 -53 0
-46 53 -54 0
5 54 -55 0
-5 -54 -55 0
5 -54 55 0
-5 54 55 0
-56 14 0
-56 19 0
-14 -19 56 0
-57 27 0
-57 30 0
-27 -30 57 0
-58 -56 0
-58 -57 0
56 57 58 0
59 55 0
59 58 0
-55 -58 -59 0
14 -15 26 -1 0
-23 -5 -56 -13 0
10 12 0
17 -6 -16 0
-52 25 -32 -48 -46 0
39 1 -30 0
-29 12 -17 -36 0
46 8 -3 -14 0
-40 -10 0
45 -30 -22 -48 0
29 39 -49 17 28 0
39 47 -3 12 23 0
17 -19 55 10 43 0
-52 -31 0
-15 57 -34 19 -5 0
-49 -43 13 0
46 4 -44 -52 -21 -37 0
39 -51 0
7 -6 -29 0
54 6 -5 11 0
41 -47 0
51 30 57 38 0
32 26 25 0
58 -36 -26 -40 0
20 32 1 -3 0
-49 -34 30 0
-46 -1 0
8 49 -40 24 0
-26 36 16 -45 -38 0
11 26 22 13 -30 0
-22 -53 52 0
-29 -24 -28 44 53 -8 0
-28 31 0
-33 4 -58 10 -41 0
-55 5 19 -20 10 -4 0
29 -16 28 30 0
26 -42 25 19 -2 0
-1 -8 28 57 41 0
22 -4 -2 12 0
58 -53 0
-27 43 -49 0
-38 -46 -44 6 8 0
-14 12 -20 -57 39 0
58 49 -28 31 -54 0
56 31 39 50 0
12 20 17 36 29 -49 0
25 -50 2 15 -11 0
23 39 -31 20 41 0
59 0
